(set-option :produce-models true)
(set-logic QF_UF)
(declare-fun p20() Bool)
(declare-fun p2() Bool)
(declare-fun p18() Bool)
(declare-fun p60() Bool)
(declare-fun p17() Bool)
(declare-fun p51() Bool)
(declare-fun p24() Bool)
(declare-fun p76() Bool)
(declare-fun p61() Bool)
(declare-fun p86() Bool)
(declare-fun p32() Bool)
(declare-fun p10() Bool)
(declare-fun p29() Bool)
(declare-fun p3() Bool)
(declare-fun p68() Bool)
(declare-fun p72() Bool)
(declare-fun p80() Bool)
(declare-fun p36() Bool)
(declare-fun p6() Bool)
(declare-fun p75() Bool)
(declare-fun p73() Bool)
(declare-fun p0() Bool)
(declare-fun p59() Bool)
(declare-fun p8() Bool)
(declare-fun p37() Bool)
(declare-fun p30() Bool)
(declare-fun p40() Bool)
(declare-fun p9() Bool)
(declare-fun p56() Bool)
(declare-fun p82() Bool)
(declare-fun p64() Bool)
(declare-fun p5() Bool)
(declare-fun p70() Bool)
(declare-fun p57() Bool)
(declare-fun p46() Bool)
(declare-fun p52() Bool)
(declare-fun p63() Bool)
(declare-fun p39() Bool)
(declare-fun p26() Bool)
(declare-fun p27() Bool)
(declare-fun p21() Bool)
(declare-fun p12() Bool)
(declare-fun p38() Bool)
(declare-fun p25() Bool)
(declare-fun p11() Bool)
(declare-fun p74() Bool)
(declare-fun p14() Bool)
(declare-fun p48() Bool)
(declare-fun p41() Bool)
(declare-fun p47() Bool)
(declare-fun p15() Bool)
(declare-fun p1() Bool)
(declare-fun p35() Bool)
(declare-fun p44() Bool)
(declare-fun p83() Bool)
(declare-fun p85() Bool)
(declare-fun p88() Bool)
(declare-fun p19() Bool)
(declare-fun p62() Bool)
(declare-fun p7() Bool)
(declare-fun p65() Bool)
(declare-fun p42() Bool)
(declare-fun p67() Bool)
(declare-fun p31() Bool)
(declare-fun p34() Bool)
(declare-fun p13() Bool)
(declare-fun p69() Bool)
(declare-fun p45() Bool)
(declare-fun p66() Bool)
(declare-fun p54() Bool)
(declare-fun p77() Bool)
(declare-fun p53() Bool)
(declare-fun p33() Bool)
(declare-fun p87() Bool)
(declare-fun p43() Bool)
(declare-fun p55() Bool)
(declare-fun p84() Bool)
(declare-fun p79() Bool)
(declare-fun p22() Bool)
(declare-fun p28() Bool)
(declare-fun p23() Bool)
(declare-fun p89() Bool)
(declare-fun p49() Bool)
(declare-fun p16() Bool)
(declare-fun p58() Bool)
(declare-fun p78() Bool)
(declare-fun p81() Bool)
(declare-fun p50() Bool)
(declare-fun p71() Bool)
(declare-fun p4() Bool)
(assert
(and (or (not p20) p2 (not p18)) (or (not p60) p17 (not p51)) (or p24 p76 p61) (or p86 p32 p10) (or (not p29) p3 (not p68)) (or (not p72) (not p80) (not p36)) (or p6 p75 (not p86)) (or p73 (not p0) (not p76)) (or p59 (not p8) p3) (or (not p3) p37 p3) (or p32 (not p73) (not p30)) (or p40 (not p59) (not p9)) (or (not p75) (not p56) p40) (or p82 (not p64) p5) (or (not p18) p70 p3) (or (not p57) p10 p46) (or (not p52) p68 p32) (or (not p63) p39 (not p26)) (or p68 p82 p0) (or (not p63) (not p27) p21) (or (not p12) p38 p0) (or p25 (not p56) p56) (or p68 (not p52) p11) (or (not p70) (not p86) p0) (or (not p56) (not p74) (not p10)) (or p8 p39 (not p14)) (or p48 p41 p60) (or p47 p64 (not p61)) (or (not p30) p36 (not p86)) (or p74 p82 (not p15)) (or p30 (not p1) p17) (or p30 (not p21) p72) (or p35 p2 (not p44)) (or (not p29) (not p83) p85) (or p88 (not p19) (not p8)) (or (not p62) (not p7) (not p65)) (or p68 p42 (not p67)) (or p31 (not p60) p34) (or (not p36) p41 (not p13)) (or p65 (not p38) (not p69)) (or (not p29) (not p9) (not p34)) (or p45 p66 (not p54)) (or p68 (not p77) p53) (or p46 (not p63) (not p47)) (or p31 p17 (not p25)) (or p2 (not p41) p54) (or p74 p17 p86) (or (not p73) p19 (not p77)) (or (not p25) p12 (not p33)) (or p11 p87 p43) (or p61 (not p55) (not p40)) (or (not p84) (not p67) (not p86)) (or (not p66) (not p79) (not p22)) (or (not p56) (not p3) (not p11)) (or p31 p33 p5) (or p28 p76 p12) (or p25 (not p29) (not p40)) (or (not p65) p9 p5) (or (not p23) (not p55) (not p42)) (or p42 (not p26) p83) (or p6 p37 (not p66)) (or (not p73) p67 (not p69)) (or p72 (not p34) p47) (or (not p76) p43 (not p3)) (or (not p79) (not p89) p79) (or p20 p70 (not p85)) (or (not p65) p86 (not p89)) (or (not p89) p18 (not p24)) (or (not p40) p82 p44) (or p40 p75 p80) (or (not p20) p60 (not p49)) (or p15 (not p21) (not p16)) (or p26 p20 p52) (or (not p58) p56 (not p39)) (or p86 p20 (not p8)) (or (not p64) (not p34) p15) (or p51 (not p55) (not p75)) (or (not p79) (not p78) (not p60)) (or p70 p24 (not p56)) (or (not p87) (not p43) p26) (or p88 (not p77) (not p6)) (or (not p6) p21 (not p39)) (or (not p61) p79 (not p16)) (or p74 p61 (not p31)) (or (not p89) (not p6) p81) (or (not p31) (not p82) p53) (or (not p8) p37 p74) (or p16 (not p72) (not p16)) (or p12 p38 p42) (or p38 (not p47) (not p23)) (or (not p49) (not p16) p38) (or (not p18) p63 (not p13)) (or (not p83) (not p79) p47) (or p72 p85 (not p40)) (or (not p50) (not p46) (not p50)) (or (not p7) p45 (not p84)) (or p15 p1 (not p43)) (or p28 p68 (not p49)) (or p57 (not p1) p41) (or (not p45) p54 p44) (or p10 (not p77) p37) (or (not p17) (not p76) p46) (or p72 (not p8) p25) (or (not p6) (not p84) (not p49)) (or (not p15) (not p88) (not p86)) (or p71 (not p80) p77) (or (not p76) p39 p58) (or p4 (not p46) p24) (or (not p86) p64 p22) (or (not p69) p81 p69) (or (not p51) (not p2) p40) (or p26 (not p84) p49) (or (not p27) (not p44) (not p78)) (or (not p88) p64 (not p68)) (or (not p19) p49 p19) (or p49 p3 p34) (or (not p67) (not p87) (not p80)) (or (not p46) (not p28) p75) (or (not p49) p53 p74) (or p68 (not p72) (not p54)) (or (not p76) (not p69) (not p5)) (or p50 p47 p9) (or (not p88) p85 p35) (or (not p17) p85 p1) (or (not p39) p48 (not p74)) (or (not p53) p76 p73) (or (not p55) p17 p40) (or p23 (not p43) (not p11)) (or (not p51) p33 p82) (or p71 (not p16) (not p76)) (or (not p25) (not p34) p25) (or (not p82) p70 p6) (or p46 p14 (not p33)) (or (not p38) (not p51) (not p47)) (or p80 (not p27) (not p21)) (or (not p41) (not p85) p14) (or p31 p12 (not p16)) (or p38 p89 p10) (or p20 (not p8) p67) (or (not p45) p36 p52) (or (not p49) (not p12) (not p67)) (or p85 (not p32) (not p15)) (or p6 (not p52) (not p65)) (or (not p41) p36 (not p66)) (or p31 p58 p4) (or (not p38) (not p39) p59) (or (not p57) p73 (not p48)) (or p25 (not p0) (not p24)) (or (not p16) p55 (not p31)) (or p0 p52 p56) (or p21 (not p73) (not p89)) (or p50 (not p1) p60) (or (not p37) (not p5) p82) (or p7 (not p62) p71) (or (not p82) p43 p12) (or p54 (not p0) (not p17)) (or (not p8) p55 p17) (or (not p85) p15 p16) (or p27 (not p28) p18) (or p60 (not p69) (not p7)) (or (not p75) (not p85) (not p36)) (or p14 (not p9) (not p82)) (or p79 p16 p78) (or p11 p35 p85) (or p30 p67 (not p41)) (or (not p44) p16 (not p3)) (or (not p23) p24 p60) (or p3 p15 p74) (or p37 (not p65) (not p64)) (or p13 p51 (not p42)) (or p16 (not p24) (not p0)) (or p61 (not p50) (not p68)) (or p62 (not p1) p27) (or (not p64) (not p77) p11) (or p40 (not p89) p73) (or (not p46) (not p50) p81) (or (not p49) (not p22) (not p20)) (or (not p39) (not p74) (not p82)) (or (not p15) p61 (not p89)) (or p41 p48 (not p65)) (or (not p5) (not p26) p21) (or p17 (not p7) p46) (or (not p82) (not p76) (not p33)) (or p82 p88 (not p77)) (or (not p72) (not p6) p87) (or (not p10) (not p51) (not p24)) (or p53 (not p44) (not p48)) (or p37 p41 (not p3)) (or (not p21) p38 p78) (or p30 p79 (not p41)) (or p27 p1 p10) (or p80 p68 p69) (or p56 (not p46) (not p34)) (or p68 (not p80) p53) (or p39 p12 p61) (or p72 (not p89) (not p30)) (or p57 p33 p77) (or p61 (not p4) (not p66)) (or p68 (not p65) p16) (or p44 (not p71) (not p11)) (or (not p11) p57 (not p69)) (or p9 p15 (not p65)) (or (not p52) (not p10) (not p21)) (or (not p44) p45 (not p85)) (or (not p19) (not p40) (not p66)) (or (not p32) (not p7) (not p31)) (or (not p62) (not p14) p45) (or p57 p26 (not p68)) (or p50 (not p18) p4) (or p37 p72 (not p35)) (or p13 (not p59) p63) (or (not p15) (not p22) (not p63)) (or (not p32) p63 p58) (or (not p75) p59 p88) (or p47 p74 p84) (or p14 (not p39) (not p52)) (or p29 p85 (not p0)) (or p60 (not p38) (not p47)) (or p85 (not p61) p12) (or (not p85) p70 p54) (or p35 (not p81) p39) (or p73 (not p25) p34) (or (not p53) p86 p15) (or (not p46) p58 p53) (or p37 p77 (not p59)) (or (not p22) p79 p29) (or (not p71) (not p6) (not p83)) (or (not p11) (not p25) p65) (or p7 (not p25) (not p51)) (or (not p25) (not p3) p53) (or p23 (not p60) p81) (or p50 p44 p10) (or p85 (not p77) (not p60)) (or p70 p12 (not p61)) (or p2 p34 p47) (or p53 (not p82) p39) (or p45 p48 p32) (or p50 p60 (not p30)) (or p3 p78 p37) (or p85 (not p42) p36) (or p64 (not p87) p57) (or (not p25) p22 (not p30)) (or (not p63) (not p22) (not p4)) (or p21 (not p1) p72) (or (not p11) p24 p83) (or (not p18) p66 p77) (or (not p46) (not p51) p70) (or (not p64) (not p6) (not p37)) (or (not p64) (not p85) (not p29)) (or p84 (not p2) (not p2)) (or p82 p0 (not p55)) (or p6 (not p48) (not p23)) (or (not p6) p66 (not p4)) (or p57 (not p22) (not p62)) (or p7 p88 (not p65)) (or (not p83) p23 p19) (or p34 p67 p85) (or (not p43) p87 (not p62)) (or p7 p68 p11) (or (not p55) p24 p79) (or p14 (not p77) (not p8)) (or p58 p9 (not p52)) (or (not p44) p87 p79) (or p12 (not p1) p5) (or (not p32) p45 p79) (or p11 (not p80) (not p57)) (or (not p84) (not p42) p26) (or p84 p59 p61) (or p34 p41 p52) (or (not p40) p8 p11) (or p86 p9 p35) (or p88 (not p20) (not p49)) (or p23 p17 (not p5)) (or p86 p76 p53) (or (not p45) (not p9) p88) (or p6 p15 (not p3)) (or (not p37) (not p58) p3) (or (not p30) (not p18) (not p10)) (or (not p15) p40 p48) (or (not p52) p2 (not p82)) (or (not p29) (not p35) (not p7)) (or p45 (not p56) (not p36)) (or p29 p75 (not p16)) (or (not p14) p74 p71) (or p10 p55 (not p67)) (or p30 p25 p87) (or (not p38) (not p80) (not p15)) (or (not p56) (not p82) (not p41)) (or p66 p73 p70) (or (not p32) p17 p71) (or (not p5) (not p37) (not p42)) (or p28 p11 (not p6)) (or p78 p18 p43) (or p42 (not p70) p20) (or (not p58) p55 (not p23)) (or p85 (not p50) p66) (or p59 p80 (not p18)) (or p54 p22 (not p25)) (or p66 p63 p19) (or p3 p71 (not p64)) (or (not p80) (not p59) (not p31)) (or p26 (not p58) p27) (or (not p82) (not p22) (not p17)) (or (not p4) p16 p37) (or p88 p49 p55) (or (not p77) (not p17) (not p0)) (or p23 (not p61) (not p24)) (or p56 (not p41) (not p31)) (or p55 p46 p46) (or p39 (not p66) p64) (or (not p37) (not p88) (not p54)) (or (not p32) (not p15) p75) (or (not p80) p36 p13) (or p86 (not p12) (not p86)) (or p89 (not p4) p24) (or p74 p45 (not p44)) (or p19 p28 p39) (or (not p58) p55 (not p66)) (or p15 p56 (not p76)) (or (not p53) (not p0) p87) (or (not p22) (not p30) p23) (or p54 p69 p45) (or (not p25) p60 p25) (or (not p8) p51 p43) (or (not p1) (not p61) (not p44)) (or (not p32) p87 p37) (or (not p46) p47 (not p79)) (or p56 (not p38) (not p82)) (or (not p59) p72 p12) (or (not p67) p7 p22) (or (not p33) p68 p30) (or p23 (not p13) (not p43)) (or p86 p48 (not p39)) (or (not p35) p48 p87) (or (not p62) p27 (not p64)) (or (not p8) p32 (not p73)) (or p24 p55 p7) (or p1 p46 (not p44)) (or (not p57) p26 p86) (or p35 (not p66) (not p23)) (or p69 (not p74) p0) (or (not p84) p0 (not p20)) (or (not p42) (not p71) (not p39)) (or p60 p63 (not p40)) (or p39 (not p23) p83) (or (not p7) p11 (not p0)) (or p6 (not p1) p23) (or (not p54) (not p46) p35) (or (not p62) (not p63) (not p11)) (or p8 p49 p0) (or p41 (not p4) (not p36)) (or p5 (not p21) (not p60)) (or p80 p87 (not p69)) (or (not p15) p16 (not p30)) (or p81 (not p1) p63) (or p84 p85 (not p41)) (or p77 p68 (not p76)) (or (not p14) p51 p18) (or (not p71) p21 (not p14)) (or p0 p19 (not p83)) (or p40 (not p8) (not p19)) (or (not p71) p53 (not p85)) (or p41 (not p83) (not p87)) (or p76 p4 (not p37)) (or p51 (not p28) (not p67)) (or p55 (not p73) p87) (or p56 p82 (not p58)) (or p39 p35 p73) (or p21 p38 p33) (or p67 p71 p85) (or p57 (not p10) p30) (or (not p34) (not p7) (not p9)) (or p1 (not p78) (not p44)) (or p29 p8 p38) (or p44 p31 (not p82)) (or (not p71) (not p42) (not p12)) (or p53 p85 p45) (or p75 p18 p30) (or (not p21) p6 (not p44)) (or p74 (not p29) p15) (or (not p8) (not p32) (not p17)) (or p64 (not p5) (not p32)) (or (not p8) (not p55) p57) (or p65 (not p34) (not p23)) (or (not p32) (not p41) p6) (or p54 p59 (not p23)) (or p11 (not p87) (not p69)) (or p38 p63 (not p40)) (or (not p35) (not p75) p68) (or p62 p21 (not p62)) (or (not p75) p16 p9) (or p85 p7 p27) (or p56 (not p22) (not p13)) (or p34 (not p25) (not p5)) (or (not p37) (not p19) (not p9)) (or (not p64) p45 (not p56)) (or (not p81) (not p32) (not p69)) (or (not p55) (not p59) p48) (or p9 (not p34) p40) (or (not p21) p23 (not p79)) (or (not p89) p12 (not p64)) (or p8 (not p81) (not p65)) (or p6 p57 p87) (or p33 p71 p24) (or p70 (not p42) (not p65)) (or (not p88) p65 p69) (or (not p78) p83 p31) (or (not p6) p74 p11) (or (not p31) (not p73) (not p44)) (or p35 p27 p18) (or (not p42) p15 p67) (or p8 (not p33) (not p30)) (or p83 p86 p65) (or p6 p75 (not p76)) (or p66 p81 (not p89)) (or p18 (not p43) p59) (or (not p21) p65 p44) (or p38 p40 p14) (or p52 p3 (not p39)) (or p54 (not p84) p34) (or p73 p76 p88) (or (not p58) (not p61) p29) (or (not p11) (not p4) p22) (or p2 p48 (not p84)) (or (not p26) p39 (not p69)) (or p61 p64 (not p37)) (or p25 p48 p7) (or (not p76) (not p39) (not p6)) (or p88 p87 p4) (or (not p72) (not p68) (not p33)) (or (not p51) p59 p32) (or p37 p56 (not p18)) (or (not p30) p73 p79) (or (not p14) p89 p29) (or p19 p73 p84) (or p6 (not p21) (not p55)) (or p88 p8 p45) (or p77 (not p15) (not p10)) (or (not p27) (not p59) (not p53)) (or (not p23) p39 p34) (or p56 p18 p18) (or p77 p69 p80) (or (not p84) p80 (not p47)) (or (not p54) (not p57) p63) (or (not p24) p31 (not p54)) (or p38 (not p25) (not p55)) (or p19 p82 p60) (or (not p40) p68 p60))
)
(check-sat)
(get-model)
